WARNING: for repeatability, setting FPU to use double precision
============================[ Problem Statistics ]=============================
|                                                                             |
|  Number of variables:            24                                         |
|  Number of clauses:              92                                         |
|  Parse time:                   0.00 s                                       |
|                                                                             |
============================[ Search Statistics ]==============================
| Conflicts |          ORIGINAL         |          LEARNT          | Progress |
|           |    Vars  Clauses Literals |    Limit  Clauses Lit/Cl |          |
===============================================================================
===============================================================================
restarts              : 1
conflicts             : 7              (2620 /sec)
decisions             : 7              (0.00 % random) (2620 /sec)
propagations          : 94             (35180 /sec)
conflict literals     : 12             (7.69 % deleted)
Memory used           : 11.00 MB
CPU time              : 0.002672 s

UNSATISFIABLE
